
Gurobi 7.5.2 (linux64, Python) logging started Mon Dec 25 17:19:58 2017

Academic license - for non-commercial use only

Gurobi 7.5.2 (linux64, Python) logging started Tue Dec 26 10:44:32 2017

Academic license - for non-commercial use only

Gurobi 7.5.2 (linux64, Python) logging started Tue Dec 26 10:44:32 2017

Academic license - for non-commercial use only

Gurobi 7.5.2 (linux64, Python) logging started Tue Dec 26 10:44:32 2017

Academic license - for non-commercial use only

Gurobi 7.5.2 (linux64, Python) logging started Tue Dec 26 10:44:35 2017

Academic license - for non-commercial use only

Gurobi 7.5.2 (linux64, Python) logging started Tue Dec 26 10:44:36 2017

Academic license - for non-commercial use only

Gurobi 7.5.2 (linux64, Python) logging started Tue Dec 26 10:44:58 2017

Academic license - for non-commercial use only

Gurobi 7.5.2 (linux64, Python) logging started Tue Dec 26 10:45:07 2017

Academic license - for non-commercial use only

Gurobi 7.5.2 (linux64, Python) logging started Tue Dec 26 10:45:08 2017

Academic license - for non-commercial use only

Gurobi 7.5.2 (linux64, Python) logging started Tue Dec 26 10:45:09 2017

Academic license - for non-commercial use only

Gurobi 7.5.2 (linux64, Python) logging started Tue Dec 26 10:45:38 2017

Academic license - for non-commercial use only

Gurobi 7.5.2 (linux64, Python) logging started Tue Dec 26 10:46:06 2017

Academic license - for non-commercial use only

Gurobi 7.5.2 (linux64, Python) logging started Tue Dec 26 10:46:14 2017

Academic license - for non-commercial use only

Gurobi 7.5.2 (linux64, Python) logging started Tue Dec 26 10:46:30 2017

Academic license - for non-commercial use only

Gurobi 7.5.2 (linux64, Python) logging started Tue Dec 26 10:46:31 2017

Academic license - for non-commercial use only

Gurobi 7.5.2 (linux64, Python) logging started Tue Dec 26 10:46:36 2017

Academic license - for non-commercial use only
